     Program PWSCF v.7.2 starts on 19Jan2024 at 15:59: 3

     Waiting for input...
     Reading input from standard input

     Current dimensions of program PWSCF are:
     Max number of different atomic species (ntypx) = 10
     Max number of k-points (npk) =  40000
     Max angular momentum in pseudopotentials (lmaxx) =  4
     file S.pbe-n-kjpaw_psl.1.0.0.UPF: wavefunction(s)  3S 3P renormalized
     Message from routine setup:
     using ibrav=0 with symmetry is DISCOURAGED, use correct ibrav instead

     R & G space division:  proc/nbgrp/npool/nimage =       4
     Subspace diagonalization in iterative solution of the eigenvalue problem:
     a serial algorithm will be used

     Using Slab Decomposition

     bravais-lattice index     =            0
     lattice parameter (alat)  =       6.0471  a.u.
     unit-cell volume          =     897.6736 (a.u.)^3
     number of atoms/cell      =            4
     number of atomic types    =            2
     number of electrons       =        18.00
     number of Kohn-Sham states=            9
     kinetic-energy cutoff     =      60.0000  Ry
     charge density cutoff     =     240.0000  Ry
     scf convergence threshold =      1.0E-06
     mixing beta               =       0.7000
     number of iterations used =            8  plain     mixing
     energy convergence thresh.=      1.0E-04
     force convergence thresh. =      1.0E-03
     press convergence thresh. =      5.0E-01
     Exchange-correlation= SLA  PW   PBX  PBC
                           (   1   4   3   4   0   0   0)
     nstep                     =           50

     celldm(1)=   6.047124  celldm(2)=   0.000000  celldm(3)=   0.000000
     celldm(4)=   0.000000  celldm(5)=   0.000000  celldm(6)=   0.000000

     crystal axes: (cart. coord. in units of alat)
               a(1) = (   1.000000   0.000000   0.000000 )
               a(2) = (   0.500000   0.866025   0.000000 )
               a(3) = (   0.000000   0.000000   4.687500 )

     reciprocal axes: (cart. coord. in units 2 pi/alat)
               b(1) = (  1.000000 -0.577350  0.000000 )
               b(2) = (  0.000000  1.154701  0.000000 )
               b(3) = (  0.000000  0.000000  0.213333 )

     PseudoPot. # 1 for B  read from file:
     /home/aljawimth/maj/pseudo/B.pbe-n-kjpaw_psl.1.0.0.UPF
     MD5 check sum: 8c825a5969375aca5c2c6ad5945b3059
     Pseudo is Projector augmented-wave + core cor, Zval =  3.0
     Generated using &quot;atomic&quot; code by A. Dal Corso  v.6.3
     Shape of augmentation charge: PSQ
     Using radial grid of 1059 points,  4 beta functions with:
                l(1) =   0
                l(2) =   0
                l(3) =   1
                l(4) =   1
     Q(r) pseudized with 0 coefficients

     PseudoPot. # 2 for S  read from file:
     /home/aljawimth/maj/pseudo/S.pbe-n-kjpaw_psl.1.0.0.UPF
     MD5 check sum: fb45dfebcf3e72a4e1bd4a866ec2e262
     Pseudo is Projector augmented-wave + core cor, Zval =  6.0
     Generated using &quot;atomic&quot; code by A. Dal Corso  v.6.3
     Shape of augmentation charge: PSQ
     Using radial grid of 1151 points,  6 beta functions with:
                l(1) =   0
                l(2) =   0
                l(3) =   1
                l(4) =   1
                l(5) =   2
                l(6) =   2
     Q(r) pseudized with 0 coefficients

     atomic species   valence    mass     pseudopotential
        B              3.00    10.81100     B ( 1.00)
        S              6.00    32.06500     S ( 1.00)

      6 Sym. Ops. (no inversion) found

   Cartesian axes

     site n.     atom                  positions (alat units)
         1           S   tau(   1) = (   0.5000000   0.2886751   2.5781250  )
         2           B   tau(   2) = (   1.0000000   0.5773503   2.3437500  )
         3           B   tau(   3) = (   1.0000000   0.5773503   1.7343750  )
         4           S   tau(   4) = (   0.5000000   0.2886751   1.5000000  )

     number of k points=    12
                       cart. coord. in units 2pi/alat
        k(    1) = (   0.0000000   0.0000000   0.0000000), wk =   0.0246914
        k(    2) = (   0.0000000   0.1283001   0.0000000), wk =   0.1481481
        k(    3) = (   0.0000000   0.2566001   0.0000000), wk =   0.1481481
        k(    4) = (   0.0000000   0.3849002   0.0000000), wk =   0.1481481
        k(    5) = (   0.0000000   0.5132002   0.0000000), wk =   0.1481481
        k(    6) = (   0.1111111   0.1924501   0.0000000), wk =   0.1481481
        k(    7) = (   0.1111111   0.3207501   0.0000000), wk =   0.2962963
        k(    8) = (   0.1111111   0.4490502   0.0000000), wk =   0.2962963
        k(    9) = (   0.1111111  -0.5773503   0.0000000), wk =   0.1481481
        k(   10) = (   0.2222222   0.3849002   0.0000000), wk =   0.1481481
        k(   11) = (   0.2222222  -0.6415003   0.0000000), wk =   0.2962963
        k(   12) = (   0.3333333  -0.5773503   0.0000000), wk =   0.0493827

     Check: negative core charge=   -0.000001

     Initial potential from superposition of free atoms

     starting charge      17.9994, renormalised to      18.0000

     negative rho (up, down):  7.156E-05 0.000E+00
     Starting wfcs are   16 randomized atomic wfcs
     Checking if some PAW data can be deallocated...

     Self-consistent Calculation

     iteration #  1     ecut=    60.00 Ry     beta= 0.70
     Davidson diagonalization with overlap
     ethr =  1.00E-02,  avg # of iterations =  2.0

     Threshold (ethr) on eigenvalues was too large:
     Diagonalizing with lowered threshold

     Davidson diagonalization with overlap
     ethr =  8.53E-04,  avg # of iterations =  1.8

     negative rho (up, down):  7.333E-05 0.000E+00

     total energy              =    -155.53316463 Ry
     estimated scf accuracy    <       0.16918961 Ry

[...]

     End of self-consistent calculation

          k = 0.0000 0.0000 0.0000 (  7035 PWs)   bands (ev):

   -16.3006 -15.7405  -7.3619  -3.9564  -2.7745  -2.7745  -2.2818  -2.2818
    -0.0646

[...]

     highest occupied level (ev):    -0.0646

!    total energy              =    -155.57827452 Ry
     total all-electron energy =     -1696.259210 Ry
     estimated scf accuracy    <       0.00000039 Ry

     The total energy is the sum of the following terms:
     one-electron contribution =    -231.92793646 Ry
     hartree contribution      =     120.96187743 Ry
     xc contribution           =     -15.81671779 Ry
     ewald contribution        =      73.89571359 Ry
     one-center paw contrib.   =    -102.69121129 Ry

     convergence has been achieved in   8 iterations

[...]

     Forces acting on atoms (cartesian axes, Ry/au):

     atom    1 type  2   force =     0.00000000    0.00000000    0.02267583
     atom    2 type  1   force =     0.00000000    0.00000000   -0.09738205
     atom    3 type  1   force =     0.00000000    0.00000000    0.09717140
     atom    4 type  2   force =     0.00000000    0.00000000   -0.02246518
     The non-local contrib.  to forces
     atom    1 type  2   force =     0.00000000    0.00000000   -0.34844989
     atom    2 type  1   force =     0.00000000    0.00000000    0.25398513
     atom    3 type  1   force =     0.00000000    0.00000000   -0.25437965
     atom    4 type  2   force =     0.00000000    0.00000000    0.34841429
     The ionic contribution  to forces
     atom    1 type  2   force =     0.00000007    0.00000004   16.11859831
     atom    2 type  1   force =    -0.00000007   -0.00000004    3.59412212
     atom    3 type  1   force =    -0.00000007   -0.00000004   -3.59412212
     atom    4 type  2   force =     0.00000007    0.00000004  -16.11859831
     The local contribution  to forces
     atom    1 type  2   force =     0.00000013    0.00000007  -15.75349931
     atom    2 type  1   force =    -0.00000003   -0.00000002   -3.93791626
     atom    3 type  1   force =    -0.00000003   -0.00000002    3.93794540
     atom    4 type  2   force =     0.00000013    0.00000007   15.75294838
     The core correction contribution to forces
     atom    1 type  2   force =    -0.00000000   -0.00000000    0.00634461
     atom    2 type  1   force =    -0.00000000   -0.00000000   -0.00774290
     atom    3 type  1   force =    -0.00000000   -0.00000000    0.00729541
     atom    4 type  2   force =    -0.00000000   -0.00000000   -0.00634741
     The Hubbard contrib.    to forces
     atom    1 type  2   force =     0.00000000    0.00000000    0.00000000
     atom    2 type  1   force =     0.00000000    0.00000000    0.00000000
     atom    3 type  1   force =     0.00000000    0.00000000    0.00000000
     atom    4 type  2   force =     0.00000000    0.00000000    0.00000000
     The SCF correction term to forces
     atom    1 type  2   force =    -0.00000000   -0.00000000   -0.00048443
     atom    2 type  1   force =     0.00000000    0.00000000    0.00000332
     atom    3 type  1   force =     0.00000000    0.00000000    0.00026582
     atom    4 type  2   force =    -0.00000000   -0.00000000    0.00095133

     Total force =     0.141225     Total SCF correction =     0.001100

     Computing stress (Cartesian axis) and pressure

     negative rho (up, down):  8.320E-05 0.000E+00
          total   stress  (Ry/bohr**3)                   (kbar)     P=      -52.72
  -0.00041706   0.00000000   0.00000000          -61.35        0.00        0.00
   0.00000000  -0.00041706   0.00000000            0.00      -61.35        0.00
   0.00000000   0.00000000  -0.00024106            0.00        0.00      -35.46

     BFGS Geometry Optimization
     Energy error            =      0.0E+00 Ry
     Gradient error          =      9.7E-02 Ry/Bohr
     Cell gradient error     =      6.1E+01 kbar

     number of scf cycles    =   1
     number of bfgs steps    =   0

     enthalpy           new  =    -155.5782745160 Ry

     new trust radius        =       0.0973820530 bohr
     new conv_thr            =       0.0000010000 Ry

     new unit-cell volume =    879.05217 a.u.^3 (   130.26209 Ang^3 )
     density =      1.09314 g/cm^3

CELL_PARAMETERS (angstrom)
   3.166635529   0.000000000   0.000000000
   1.583317764   2.742386810   0.000000000
   0.000000000   0.000000000  15.000000000

ATOMIC_POSITIONS (crystal)
S             0.3333333300        0.3333333300        0.5507999689
B             0.6666666700        0.6666666700        0.4965645091
B             0.6666666700        0.6666666700        0.3734280594
S             0.3333333300        0.3333333300        0.3192074626

     Writing config-only to output data dir ./tmp/BS.save/
     NEW-OLD atomic charge density approx. for the potential

     negative rho (up, down):  8.504E-05 0.000E+00
     extrapolated charge   17.61871, renormalised to   18.00000

[...]

     Energy error            =      2.3E-02 Ry
     Gradient error          =      5.5E-02 Ry/Bohr
     Cell gradient error     =      5.3E+01 kbar

[...]

     enthalpy           old  =    -155.5782745160 Ry
     enthalpy           new  =    -155.6010538870 Ry

     CASE: enthalpy          _new < enthalpy          _old

[...]

          k =-0.0000 0.1349 0.0000 (  7093 PWs)   bands (ev):

[...]

     number of scf cycles    =   5
     number of bfgs steps    =   4

     enthalpy           old  =    -155.6187585889 Ry
     enthalpy           new  =    -155.6204234409 Ry

     CASE: enthalpy          _new < enthalpy          _old

     new trust radius        =       0.0044407163 bohr
     new conv_thr            =       0.0000000375 Ry

     new unit-cell volume =    813.14651 a.u.^3 (   120.49588 Ang^3 )
     density =      1.18174 g/cm^3

[...]

ATOMIC_POSITIONS (crystal)
S             0.3333333300        0.3333333300        0.5493414273
B             0.6666666700        0.6666666700        0.4925352976
B             0.6666666700        0.6666666700        0.3774414122
S             0.3333333300        0.3333333300        0.3206818630

     Writing config-only to output data dir ./tmp/BS.save/
     NEW-OLD atomic charge density approx. for the potential

     negative rho (up, down):  9.963E-05 0.000E+00
     extrapolated charge   18.02069, renormalised to   18.00000

[...]

     Total force =     0.000391     Total SCF correction =     0.000037

[...]

     Energy error            =      2.1E-05 Ry
     Gradient error          =      2.9E-04 Ry/Bohr
     Cell gradient error     =      8.8E-02 kbar

     bfgs converged in   6 scf cycles and   5 bfgs steps
     (criteria: energy <  1.0E-04 Ry, force <  1.0E-03 Ry/Bohr, cell <  5.0E-01 kbar)

     End of BFGS Geometry Optimization

     Final enthalpy           =    -155.6204440255 Ry

     File ./tmp/BS.bfgs deleted, as requested
Begin final coordinates
     new unit-cell volume =    813.14651 a.u.^3 (   120.49588 Ang^3 )
     density =      1.18174 g/cm^3

CELL_PARAMETERS (angstrom)
   3.045616068   0.000000000   0.000000000
   1.522808034   2.637580883   0.000000000
   0.000000000   0.000000000  15.000000000

ATOMIC_POSITIONS (crystal)
S             0.3333333300        0.3333333300        0.5493414273
B             0.6666666700        0.6666666700        0.4925352976
B             0.6666666700        0.6666666700        0.3774414122
S             0.3333333300        0.3333333300        0.3206818630
End final coordinates

     Writing config-only to output data dir ./tmp/BS.save/

     Final scf calculation at the relaxed structure.
     The G-vectors are recalculated for the final unit cell
     Results may differ from those at the preceding step.

     Using Slab Decomposition

     bravais-lattice index     =            0
     lattice parameter (alat)  =       6.0471  a.u.
     unit-cell volume          =     813.1465 (a.u.)^3
     number of atoms/cell      =            4
     number of atomic types    =            2
     number of electrons       =        18.00
     number of Kohn-Sham states=            9
     kinetic-energy cutoff     =      60.0000  Ry
     charge density cutoff     =     240.0000  Ry
     scf convergence threshold =      3.8E-08
     mixing beta               =       0.7000
     number of iterations used =            8  plain     mixing
     press convergence thresh. =      5.0E-01
     Exchange-correlation= SLA  PW   PBX  PBC
                           (   1   4   3   4   0   0   0)

     celldm(1)=   6.047124  celldm(2)=   0.000000  celldm(3)=   0.000000
     celldm(4)=   0.000000  celldm(5)=   0.000000  celldm(6)=   0.000000

     crystal axes: (cart. coord. in units of alat)
               a(1) = (   0.951755   0.000000   0.000000 )
               a(2) = (   0.475878   0.824244   0.000000 )
               a(3) = (   0.000000   0.000000   4.687500 )

     reciprocal axes: (cart. coord. in units 2 pi/alat)
               b(1) = (  1.050691 -0.606616  0.000000 )
               b(2) = ( -0.000000  1.213233  0.000000 )
               b(3) = (  0.000000  0.000000  0.213333 )

     PseudoPot. # 1 for B  read from file:
     /home/aljawimth/maj/pseudo/B.pbe-n-kjpaw_psl.1.0.0.UPF
     MD5 check sum: 8c825a5969375aca5c2c6ad5945b3059
     Pseudo is Projector augmented-wave + core cor, Zval =  3.0
     Generated using &quot;atomic&quot; code by A. Dal Corso  v.6.3
     Shape of augmentation charge: PSQ
     Using radial grid of 1059 points,  4 beta functions with:
                l(1) =   0
                l(2) =   0
                l(3) =   1
                l(4) =   1
     Q(r) pseudized with 0 coefficients

     PseudoPot. # 2 for S  read from file:
     /home/aljawimth/maj/pseudo/S.pbe-n-kjpaw_psl.1.0.0.UPF
     MD5 check sum: fb45dfebcf3e72a4e1bd4a866ec2e262
     Pseudo is Projector augmented-wave + core cor, Zval =  6.0
     Generated using &quot;atomic&quot; code by A. Dal Corso  v.6.3
     Shape of augmentation charge: PSQ
     Using radial grid of 1151 points,  6 beta functions with:
                l(1) =   0
                l(2) =   0
                l(3) =   1
                l(4) =   1
                l(5) =   2
                l(6) =   2
     Q(r) pseudized with 0 coefficients

     atomic species   valence    mass     pseudopotential
        B              3.00    10.81100     B ( 1.00)
        S              6.00    32.06500     S ( 1.00)

      6 Sym. Ops. (no inversion) found

   Cartesian axes

     site n.     atom                  positions (alat units)
         1           S   tau(   1) = (   0.4758775   0.2747480   2.5750379  )
         2           B   tau(   2) = (   0.9517550   0.5494960   2.3087592  )
         3           B   tau(   3) = (   0.9517550   0.5494960   1.7692566  )
         4           S   tau(   4) = (   0.4758775   0.2747480   1.5031962  )

     number of k points=    12
                       cart. coord. in units 2pi/alat
        k(    1) = (   0.0000000   0.0000000   0.0000000), wk =   0.0246914
        k(    2) = (  -0.0000000   0.1348037   0.0000000), wk =   0.1481481
        k(    3) = (  -0.0000000   0.2696073   0.0000000), wk =   0.1481481
        k(    4) = (  -0.0000000   0.4044110   0.0000000), wk =   0.1481481
        k(    5) = (  -0.0000000   0.5392146   0.0000000), wk =   0.1481481
        k(    6) = (   0.1167434   0.2022055   0.0000000), wk =   0.1481481
        k(    7) = (   0.1167434   0.3370091   0.0000000), wk =   0.2962963
        k(    8) = (   0.1167434   0.4718128   0.0000000), wk =   0.2962963
        k(    9) = (   0.1167434  -0.6066165   0.0000000), wk =   0.1481481
        k(   10) = (   0.2334868   0.4044110   0.0000000), wk =   0.1481481
        k(   11) = (   0.2334868  -0.6740183   0.0000000), wk =   0.2962963
        k(   12) = (   0.3502302  -0.6066165   0.0000000), wk =   0.0493827

     Check: negative core charge=   -0.000001

     Initial potential from superposition of free atoms

     starting charge      17.9994, renormalised to      18.0000

     negative rho (up, down):  7.160E-05 0.000E+00
     Starting wfcs are   16 randomized atomic wfcs
     Checking if some PAW data can be deallocated...

     Self-consistent Calculation

[...]

     total energy              =    -155.62036355 Ry
     estimated scf accuracy    <       0.00000004 Ry

     iteration # 14     ecut=    60.00 Ry     beta= 0.70
     Davidson diagonalization with overlap
     ethr =  2.46E-10,  avg # of iterations =  1.9

[...]

     End of self-consistent calculation

[...]

          k =-0.0000 0.5392 0.0000 (  6390 PWs)   bands (ev):

[...]

          k = 0.3502-0.6066 0.0000 (  6405 PWs)   bands (ev):

   -13.0932 -12.5843  -9.0375  -7.9457  -7.1296  -6.1642  -3.4285  -3.2575
    -1.7642

     highest occupied level (ev):    -0.3553

!    total energy              =    -155.62036354 Ry
     total all-electron energy =     -1696.301299 Ry
     estimated scf accuracy    <       0.00000001 Ry

     The total energy is the sum of the following terms:
     one-electron contribution =    -260.09792815 Ry
     hartree contribution      =     135.45529136 Ry
     xc contribution           =     -16.07737532 Ry
     ewald contribution        =      87.80224966 Ry
     one-center paw contrib.   =    -102.70260109 Ry

     convergence has been achieved in  14 iterations

     negative rho (up, down):  1.376E-04 0.000E+00

     Forces acting on atoms (cartesian axes, Ry/au):

     atom    1 type  2   force =     0.00000000    0.00000000   -0.00003095
     atom    2 type  1   force =     0.00000000    0.00000000    0.00030586
     atom    3 type  1   force =     0.00000000    0.00000000   -0.00025939
     atom    4 type  2   force =     0.00000000    0.00000000   -0.00001552
     The non-local contrib.  to forces
     atom    1 type  2   force =     0.00000000    0.00000000   -0.33055590
     atom    2 type  1   force =     0.00000000    0.00000000    0.33181438
     atom    3 type  1   force =     0.00000000    0.00000000   -0.33176849
     atom    4 type  2   force =     0.00000000    0.00000000    0.33047855
     The ionic contribution  to forces
     atom    1 type  2   force =     0.00000006    0.00000004   18.48064964
     atom    2 type  1   force =    -0.00000006   -0.00000004    3.80216747
     atom    3 type  1   force =    -0.00000006   -0.00000004   -3.80367841
     atom    4 type  2   force =     0.00000006    0.00000004  -18.47913869
     The local contribution  to forces
     atom    1 type  2   force =     0.00000011    0.00000006  -18.15477816
     atom    2 type  1   force =    -0.00000004   -0.00000002   -4.12274907
     atom    3 type  1   force =    -0.00000004   -0.00000002    4.12461903
     atom    4 type  2   force =     0.00000011    0.00000006   18.15292486
     The core correction contribution to forces
     atom    1 type  2   force =    -0.00000000   -0.00000000    0.00466765
     atom    2 type  1   force =    -0.00000000   -0.00000000   -0.01102786
     atom    3 type  1   force =    -0.00000000   -0.00000000    0.01030592
     atom    4 type  2   force =    -0.00000000   -0.00000000   -0.00466633
     The Hubbard contrib.    to forces
     atom    1 type  2   force =     0.00000000    0.00000000    0.00000000
     atom    2 type  1   force =     0.00000000    0.00000000    0.00000000
     atom    3 type  1   force =     0.00000000    0.00000000    0.00000000
     atom    4 type  2   force =     0.00000000    0.00000000    0.00000000
     The SCF correction term to forces
     atom    1 type  2   force =    -0.00000000   -0.00000000   -0.00019024
     atom    2 type  1   force =    -0.00000000   -0.00000000   -0.00007511
     atom    3 type  1   force =    -0.00000000   -0.00000000    0.00008652
     atom    4 type  2   force =    -0.00000000   -0.00000000    0.00021003

     Total force =     0.000403     Total SCF correction =     0.000306
     SCF correction compared to forces is large: reduce conv_thr to get better values

     Computing stress (Cartesian axis) and pressure

     negative rho (up, down):  1.376E-04 0.000E+00
          total   stress  (Ry/bohr**3)                   (kbar)     P=       -0.00
   0.00000054  -0.00000000   0.00000000            0.08       -0.00        0.00
  -0.00000000   0.00000054   0.00000000           -0.00        0.08        0.00
   0.00000000   0.00000000  -0.00000112            0.00        0.00       -0.16

     Writing all to output data dir ./tmp/BS.save/

     General routines

     Parallel routines

   This run was terminated on:  16: 2:11  19Jan2024

   JOB DONE.